c NeuroCodeBench 2.0 CNF formula with verdict Unsat
p cnf 24 59
1 -14 -22 15 9 -7 0
1 -14 -22 -15 6 -4 -9 -8 0
-1 -6 3 -13 -7 -11 0
1 -14 22 -3 -13 0
-1 -6 3 13 -19 -15 -4 -22 0
1 14 -22 -15 12 -2 0
1 14 22 -13 8 21 0
-1 6 -24 -11 -17 0
-1 6 24 -10 -19 12 0
1 -14 22 -3 13 20 12 0
-1 -6 3 13 -19 -15 -4 22 -11 0
1 14 -22 -15 -12 11 -10 24 18 0
-1 6 -24 11 0
1 14 -22 15 11 0
1 14 -22 -15 12 2 23 -10 0
1 -14 -22 15 -9 0
1 -14 -22 -15 6 4 10 0
-1 -6 -3 17 4 0
1 -14 -22 -15 6 -4 9 0
1 14 22 -13 -8 -21 -16 0
1 -14 22 3 19 -11 0
-1 -6 3 -13 7 0
1 14 22 -13 -8 21 0
1 -14 -22 15 9 7 0
1 -14 22 3 -19 0
1 14 -22 15 -11 0
1 -14 22 3 19 11 -9 5 2 0
1 -14 22 -3 13 -20 0
1 14 -22 -15 -12 11 -10 24 -18 8 0
-1 6 24 -10 19 0
-1 6 24 10 -3 0
1 -14 22 3 19 11 9 0
1 14 -22 -15 -12 11 -10 -24 0
-1 6 24 10 3 0
-1 -6 3 13 -19 15 0
1 14 22 13 0
-1 -6 3 13 19 0
1 14 -22 -15 12 2 23 10 0
-1 -6 3 13 -19 -15 4 5 0
1 14 -22 -15 -12 -11 20 0
1 -14 22 3 19 11 -9 5 -2 0
-1 -6 -3 -17 0
1 14 -22 -15 -12 11 -10 24 -18 -8 0
-1 -6 3 -13 -7 11 0
1 -14 -22 -15 6 -4 -9 8 0
1 -14 -22 -15 -6 0
1 14 -22 -15 -12 -11 -20 0
1 -14 -22 -15 6 4 -10 0
1 14 -22 -15 -12 11 10 0
1 14 -22 -15 12 2 -23 0
1 14 22 -13 -8 -21 16 0
1 -14 22 3 19 11 -9 -5 0
1 14 22 -13 8 -21 0
-1 -6 3 13 -19 -15 -4 22 11 0
-1 -6 -3 17 -4 0
-1 -6 3 13 -19 -15 4 -5 0
-1 6 -24 -11 17 0
-1 6 24 -10 -19 -12 0
1 -14 22 -3 13 20 -12 0
